(declare-fun b20 () (_ FloatingPoint 8 24))
(declare-fun b11 () (_ FloatingPoint 8 24))
(declare-fun b10 () (_ FloatingPoint 8 24))
(declare-fun b17 () (_ FloatingPoint 8 24))
(declare-fun b14 () (_ FloatingPoint 8 24))
(assert (let ((.def_28 (fp.leq b20 b17)))
(let ((.def_12 (fp.div RNE b10 b11)))
(let ((.def_14 (fp.div RNE .def_12 b14)))
(let ((.def_26 (fp.lt b17 .def_14)))
(let ((.def_24 (fp.leq b20 b14)))
(let ((.def_22 (fp.lt b14 .def_12)))
(let ((.def_20 (fp.leq b20 b11)))
(let ((.def_16 (fp.div RNE .def_14 b17)))
(let ((.def_18 (fp.lt .def_16 b20)))
(let ((.def_11 (fp.lt b11 b10)))
(let ((.def_19 (and .def_11 .def_18)))
(let ((.def_21 (and .def_19 .def_20)))
(let ((.def_23 (and .def_21 .def_22)))
(let ((.def_25 (and .def_23 .def_24)))
(let ((.def_27 (and .def_25 .def_26)))
(let ((.def_29 (and .def_27 .def_28)))
.def_29)))))))))))))))))
(check-sat)
